p tw 20 53
0 1
0 10
0 5
0 12
1 4
1 5
1 15
1 8
1 18
1 17
1 11
2 3
2 5
2 19
3 6
3 10
3 9
3 15
3 16
3 14
4 14
4 16
4 8
4 6
5 6
5 7
5 17
5 12
5 10
5 9
6 12
7 13
7 8
8 9
8 11
8 13
8 19
8 17
8 12
9 17
10 13
10 18
10 14
11 12
11 14
11 18
12 18
13 14
13 16
14 16
14 15
15 18
16 17
